(set-logic QF_BV)
(declare-fun _substvar_345_ () (_ BitVec 11))
(declare-fun _substvar_381_ () (_ BitVec 11))
(declare-fun _substvar_351_ () (_ BitVec 11))
(declare-fun _substvar_348_ () (_ BitVec 11))
(declare-fun _substvar_344_ () (_ BitVec 11))
(declare-fun _substvar_366_ () (_ BitVec 11))
(declare-fun _substvar_870_ () Bool)
(declare-fun _substvar_365_ () (_ BitVec 11))
(declare-fun _substvar_2014_ () Bool)
(declare-fun _substvar_958_ () Bool)
(declare-fun _substvar_871_ () Bool)
(declare-fun _substvar_1475_ () Bool)
(declare-fun _substvar_2037_ () Bool)
(assert (or false false (and true true (= _substvar_344_ (bvadd (_ bv0 11) (_ bv1 11)))) false false false false false false false (and true _substvar_1475_ (= _substvar_344_ (_ bv0 11))) false false false false))
(assert (or (and true _substvar_2014_ (= _substvar_348_ (bvadd (_ bv0 11) (_ bv1 11)))) false false false false (and true true true (= _substvar_348_ (_ bv0 11))) false false false false false false false false false false false false false false false false false false))
(assert (or false false false false false false false false false false false (and true true true (= _substvar_351_ (_ bv0 11))) false (and true true (bvugt _substvar_348_ (_ bv0 11)) (= _substvar_351_ (bvsub _substvar_348_ (_ bv0 11)))) false false false false false false false false (and true true true (= _substvar_351_ (bvadd _substvar_345_ _substvar_348_))) (and true true true (= _substvar_351_ (bvsub _substvar_345_ _substvar_348_))) false false false false false false false false false false false false false false))
(assert (or (and true _substvar_2037_ (= _substvar_365_ (_ bv0 11))) false false false false false false false false false false false false false false false false false false false (and _substvar_871_ _substvar_870_ (= _substvar_365_ (bvadd _substvar_345_ (_ bv1 11)))) (and true (bvugt _substvar_345_ (_ bv1 11)) (= _substvar_365_ (_ bv0 11))) false false false false false false false false (and true true (bvugt _substvar_348_ _substvar_345_) true) false false false false false false false false false false false false false false false false false false false false false false false false false false false false false false false false false false false false (and true true true (= _substvar_365_ (bvadd _substvar_351_ _substvar_366_))) false false false false false false false))
(assert (or false false false false false false false false false false false false false false false false false false false false false false false false false false false false false false false (and true true true (= _substvar_381_ (_ bv0 11))) false false (and true true _substvar_958_ (= _substvar_381_ (bvadd _substvar_345_ _substvar_351_))) false false false false false false false false false false false false false false false false false false false false false false false false false false false false false false false false (and true true (bvugt _substvar_351_ _substvar_348_) (= _substvar_381_ (_ bv0 11))) false false false false false false false false false false false false false false false false false false false false false false false (and true true (bvugt _substvar_366_ _substvar_365_) (= _substvar_381_ (bvsub _substvar_366_ _substvar_365_))) (and true true (bvugt _substvar_365_ _substvar_366_) (= _substvar_381_ (bvsub _substvar_365_ _substvar_366_))) false false false false false))
(assert (or false (= (_ bv131 11) _substvar_344_) (= (_ bv131 11) _substvar_348_) (= (_ bv131 11) _substvar_351_) (= (_ bv131 11) _substvar_366_) (= (_ bv131 11) _substvar_365_) (= (_ bv131 11) _substvar_381_) false false false false))
(assert (or (= (_ bv923 11) _substvar_345_) (= (_ bv923 11) _substvar_344_) (= (_ bv923 11) _substvar_348_) (= (_ bv923 11) _substvar_351_) (= (_ bv923 11) _substvar_366_) (= (_ bv923 11) _substvar_365_) (= (_ bv923 11) _substvar_381_) false false false false))
(assert (or (= (_ bv39 11) _substvar_345_) (= (_ bv39 11) _substvar_344_) false (= (_ bv39 11) _substvar_351_) (= (_ bv39 11) _substvar_366_) (= (_ bv39 11) _substvar_365_) (= (_ bv39 11) _substvar_381_) false false false false))
(check-sat)
(exit)
